LAMMPS (1 Aug 2014-ICMS)
WARNING: OMP_NUM_THREADS environment is not set. (../comm.cpp:79)
  using 1 OpenMP thread(s) per MPI task
units		real
atom_style	full

pair_style	lj/cut/tip4p/long 1 2 1 1 0.14714951 8
bond_style	class2
angle_style	harmonic
kspace_style	pppm/tip4p 0.0001

read_data	data.h2o-quantum
  orthogonal box = (0 0 0) to (12.4244 12.4244 12.4244)
  1 by 2 by 2 MPI processor grid
  reading atoms ...
  192 atoms
  scanning bonds ...
  2 = max bonds/atom
  scanning angles ...
  1 = max angles/atom
  reading bonds ...
  128 bonds
  reading angles ...
  64 angles
  2 = max # of 1-2 neighbors
  1 = max # of 1-3 neighbors
  1 = max # of 1-4 neighbors
  2 = max # of special neighbors

pair_coeff  * 2  0.0     0.0
pair_coeff  1 1  0.1852  3.1589022

#q-tip4pf bond parameters
bond_coeff      1 0.9419 607.19354  -1388.6516 1852.577
angle_coeff     1 43.93  107.4

timestep	0.5

# mean velocity is higher than target T because of zero point energy
velocity        all create 800.0 1112 dist gaussian mom yes

thermo          100
thermo_style    custom step temp pe ke etotal

# some problem
fix	 1 all gle 6 300.0 300.0 31415 qt-300k.A noneq qt-300k.C
fix_modify 1 energy no

#dump		1 all atom 100 h2o-smart.lammpstrj

#dump		2 all image 1000 h2o-smart.*.jpg element element #		zoom 1.4
#dump_modify	2 pad 5 element O H

#dump		3 all movie 100 movie.mp4 element element #		zoom 1.4
#dump_modify	3 pad 5 element O H

run		10000
PPPM initialization ...
  extracting TIP4P info from Pair style
  G vector (1/distance) = 0.352417
  grid = 10 10 10
  stencil order = 5
  estimated absolute RMS force accuracy = 0.0229722
  estimated relative force accuracy = 6.91802e-05
  using double precision FFTs
  3d grid and FFT values/proc = 2448 300
WARNING: Inconsistent image flags (../domain.cpp:678)
Memory usage per processor = 13.7364 Mbytes
Step Temp PotEng KinEng TotEng 
       0          800   -397.88467    455.46778    57.583109 
     100    660.26077   -420.48071    375.90938   -44.571329 
     200    703.91915   -445.86991    400.76561   -45.104297 
     300    692.88793    -444.4077    394.48516   -49.922539 
     400    685.00442   -424.37654     389.9968   -34.379742 
     500    644.70587   -379.74806    367.05343   -12.694627 
     600    653.67262   -398.01034    372.15852   -25.851818 
     700    725.32586   -417.12051    412.95319   -4.1673162 
     800    741.66669   -386.53012     422.2566    35.726481 
     900     706.2215   -359.16149    402.07642    42.914934 
    1000    700.74213   -380.64881    398.95682    18.308018 
    1100    739.50234   -406.42985    421.02436    14.594509 
    1200    672.23219   -379.86256    382.72512    2.8625645 
    1300    689.55607   -375.27353    392.58821    17.314686 
    1400    754.97774   -422.47367    429.83504    7.3613703 
    1500    743.16868   -434.65249    423.11173   -11.540759 
    1600    684.81513   -388.96506    389.88903   0.92397238 
    1700    733.40938   -377.77268    417.55542     39.78274 
    1800    666.99755   -390.62723    379.74486   -10.882362 
    1900    654.36028   -397.18983    372.55002   -24.639808 
    2000    719.75863   -422.99794    409.78358   -13.214367 
    2100    778.17143   -441.88629    443.04001    1.1537232 
    2200    674.61345   -365.26284    384.08086    18.818022 
    2300    764.33115   -411.57735    435.16026    23.582914 
    2400    753.03805   -383.85093     428.7307    44.879777 
    2500     738.5667   -401.17814    420.49167    19.313523 
    2600    729.79977   -401.43655    415.50035    14.063792 
    2700    765.05425   -460.48872    435.57194    -24.91678 
    2800      708.471   -409.83893    403.35714   -6.4817969 
    2900    717.62688   -431.55537     408.5699   -22.985469 
    3000    696.65418   -440.00633    396.62941    -43.37692 
    3100    739.98259   -452.79018    421.29778   -31.492404 
    3200    719.75978   -428.36859    409.78423   -18.584353 
    3300    685.06467   -391.37333     390.0311   -1.3422281 
    3400    703.87284   -382.37632    400.73925     18.36292 
    3500    712.52788   -410.13529    405.66686   -4.4684315 
    3600    736.91252   -394.15335    419.54988    25.396535 
    3700    801.84617     -378.949    456.51886     77.56986 
    3800    748.82828   -339.34614    426.33394    86.987796 
    3900    775.45371   -341.76706    441.49272    99.725657 
    4000    782.85958   -383.48694    445.70914    62.222198 
    4100    791.09859   -386.18476     450.3999     64.21514 
    4200    714.58996   -334.29083    406.84087     72.55004 
    4300    772.61346   -362.64576    439.87567    77.229909 
    4400    712.07187   -365.26164    405.40724    40.145597 
    4500    742.64171   -360.89919    422.81171    61.912518 
    4600    735.57354   -376.21902    418.78756    42.568536 
    4700    762.14535   -383.67699    433.91581    50.238816 
    4800    779.16348   -375.77396    443.60482     67.83086 
    4900    752.32897   -339.42145      428.327    88.905546 
    5000    731.37476   -353.71186    416.39704    62.685181 
    5100    738.64729   -394.11028    420.53755    26.427266 
    5200    779.63859   -430.24987    443.87532    13.625441 
    5300    728.05007   -370.53529    414.50418    43.968894 
    5400    713.68427   -370.61545    406.32524    35.709787 
    5500    806.00901   -432.66447    458.88891    26.224449 
    5600    716.70031   -376.18507    408.04237    31.857306 
    5700    728.70125   -379.26564    414.87492    35.609279 
    5800    748.09862   -369.62324    425.91852     56.29528 
    5900    745.69827   -374.59276    424.55191    49.959153 
    6000    777.46083   -376.54147    442.63544    66.093971 
    6100    785.32244   -368.24426    447.11133    78.867074 
    6200     801.7579   -400.44087    456.46861    56.027735 
    6300    796.26807   -407.62515    453.34306    45.717915 
    6400    836.25855   -438.77668    476.11103    37.334342 
    6500    797.82654   -419.07499    454.23035    35.155364 
    6600    825.54569   -420.39458    470.01182    49.617243 
    6700    793.82978   -428.67126    451.95485    23.283598 
    6800    751.41923   -415.63963    427.80906    12.169425 
    6900     711.6865   -367.90125    405.18783    37.286585 
    7000    742.87847   -378.35883     422.9465    44.587671 
    7100    773.82359   -389.82075    440.56464    50.743885 
    7200    761.45054   -398.01075    433.52023    35.509483 
    7300     728.4019   -386.50714    414.70449    28.197348 
    7400    743.67948   -394.31367    423.40255    29.088873 
    7500    722.58025     -391.775    411.39003    19.615026 
    7600    784.59745   -354.98745    446.69857     91.71112 
    7700    733.72894   -340.99574    417.73736    76.741622 
    7800    737.67076   -353.20486    419.98158    66.776716 
    7900    788.09643   -383.87569    448.69066    64.814973 
    8000    789.11405    -380.0348    449.27002    69.235225 
    8100    760.00964   -368.02103    432.69987    64.678844 
    8200    786.70853   -362.88861    447.90048     85.01187 
    8300    768.62953    -399.3617    437.60748    38.245773 
    8400    684.72147   -368.32285    389.83571    21.512852 
    8500    735.01519   -394.83716    418.46967    23.632505 
    8600     680.6462   -372.50492    387.51552    15.010593 
    8700    760.00644   -400.67816    432.69805    32.019894 
    8800    747.70614   -372.71581    425.69506    52.979257 
    8900    737.77969   -365.12784    420.04359    54.915747 
    9000    864.67988    -397.8725    492.29227     94.41977 
    9100    721.97048   -345.15732    411.04286    65.885544 
    9200    760.85845   -374.25362    433.18313    58.929514 
    9300    800.42132   -389.73545    455.70765    65.972194 
    9400    789.10582   -351.01167    449.26534    98.253678 
    9500    780.57034   -368.50092     444.4058    75.904873 
    9600     712.7098   -321.02105    405.77043    84.749379 
    9700    810.49199   -359.32931    461.44123    102.11192 
    9800    804.65099   -310.16152    458.11575    147.95423 
    9900    864.56459   -350.90399    492.22664    141.32265 
   10000    775.24306   -321.39207    441.37279    119.98072 

Loop time of 10.6791 on 4 procs for 10000 steps with 192 atoms
92.3% CPU use with 4 MPI tasks x 1 OpenMP threads
Performance: 40.453 ns/day  0.593 hours/ns  936.410 timesteps/s

MPI task timings breakdown:
Section |  min time  |  avg time  |  max time  |%varavg| %total
---------------------------------------------------------------
Pair    | 4.4682     | 4.7976     | 5.0692     |  11.2 | 44.93
Bond    | 0.037198   | 0.038286   | 0.040773   |   0.7 |  0.36
Kspace  | 2.1854     | 2.4426     | 2.7509     |  14.9 | 22.87
Neigh   | 0.064461   | 0.064514   | 0.064571   |   0.0 |  0.60
Comm    | 0.97888    | 0.99533    | 1.0243     |   1.7 |  9.32
Output  | 0.0027325  | 0.0051984  | 0.011048   |   4.7 |  0.05
Modify  | 1.8796     | 2.0129     | 2.1074     |   5.9 | 18.85
Other   |            | 0.3227     |            |       |  3.02

Nlocal:    48 ave 50 max 46 min
Histogram: 1 0 1 0 0 0 0 1 0 1
Nghost:    2337.5 ave 2370 max 2304 min
Histogram: 1 0 1 0 0 0 0 1 0 1
Neighs:    10944 ave 11709 max 10422 min
Histogram: 1 0 1 1 0 0 0 0 0 1

Total # of neighbors = 43776
Ave neighs/atom = 228
Ave special neighs/atom = 2
Neighbor list builds = 99
Dangerous builds = 0

